3 24 1 10
2 13 17 14 8 13 3 2 4 7 18 2 4 18 16 14 17 1 2 19 9 6 16 20 
3.92 0.46 6.93 4.82 3.04 3.61 5.03 6.11 1.71 6.79 6.74 2.15 6.71 7.69 4.53 6.47 2.58 1.98 2.78 7.28 4.76 4.14 1.03 4.16 
4 4 4 4 4 4 4 4 4 4 4 4 4 4 4 4 4 4 4 4 4 4 4 4 
4.08 5.88 2.36 7.06 2.73 5.16 2.57 0.82 6.68 5.73 1.4 3.65 1.89 3.18 1.32 2.59 0.12 3.8 3.4 6.94 6.75 7.53 7.22 2.26 
1 1 1 1 1 1 1 1 1 1 1 1 1 1 1 1 1 1 1 1 1 1 1 1 
1 1 1 1 1 1 1 1 1 1 1 1 1 1 1 1 1 1 1 1 1 1 1 1 
1 1 1 1 1 1 1 1 1 1 1 1 1 1 1 1 1 1 1 1 1 1 1 1 
0.01 0.01 0.01 0.01 0.01 0.01 0.01 0.01 0.01 0.01 0.01 0.01 0.01 0.01 0.01 0.01 0.01 0.01 0.01 0.01 0.01 0.01 0.01 0.01 
0.02 0.02 0.02 0.02 0.02 0.02 0.02 0.02 0.02 0.02 0.02 0.02 0.02 0.02 0.02 0.02 0.02 0.02 0.02 0.02 0.02 0.02 0.02 0.02 
1 1 1 1 1 1 1 1 1 1 1 1 1 1 1 1 1 1 1 1 1 1 1 1 
